9
0, 131, 544, 808, 566, 264, 333, 633, 219
131, 0, 627, 803, 456, 133, 269, 576, 100
544, 627, 0, 530, 817, 723, 553, 639, 726
808, 803, 530, 0, 661, 816, 559, 351, 871
566, 456, 817, 661, 0, 355, 281, 312, 440
264, 133, 723, 816, 355, 0, 256, 540, 84
333, 269, 553, 559, 281, 256, 0, 307, 316
633, 576, 639, 351, 312, 540, 307, 0, 613
219, 100, 726, 871, 440, 84, 316, 613, 0
